data/CVRPLIB/Vrp-Set-XML100/instances/XML100_1112_22.vrp
NAME : XML100_1112_22
COMMENT : Generated by Queiroga, Sadykov, Uchoa, and Vidal (2021)
TYPE : CVRP
DIMENSION : 101
EDGE_WEIGHT_TYPE : EUC_2D
CAPACITY : 6
NODE_COORD_SECTION
1    110  752 
2    829  62  
3    193  426 
4    154  734 
5    872  669 
6    372  881 
7    248  138 
8    700  357 
9    255  437 
10   856  603 
11   647  231 
12   172  331 
13   950  915 
14   102  407 
15   756  228 
16   115  40  
17   539  919 
18   63   455 
19   510  277 
20   511  49  
21   882  592 
22   717  158 
23   131  337 
24   555  178 
25   485  909 
26   332  467 
27   488  222 
28   359  197 
29   62   68  
30   407  525 
31   153  400 
32   558  938 
33   566  974 
34   377  26  
35   614  724 
36   36   727 
37   950  604 
38   258  116 
39   507  966 
40   723  12  
41   356  214 
42   975  722 
43   962  677 
44   84   942 
45   928  374 
46   77   450 
47   571  740 
48   664  437 
49   649  527 
50   398  947 
51   641  294 
52   124  185 
53   456  122 
54   762  859 
55   626  773 
56   174  263 
57   596  318 
58   548  542 
59   44   736 
60   693  374 
61   256  920 
62   270  583 
63   916  746 
64   11   283 
65   65   255 
66   277  469 
67   8    33  
68   275  975 
69   125  825 
70   134  718 
71   672  200 
72   855  651 
73   124  918 
74   560  953 
75   724  817 
76   573  400 
77   916  96  
78   605  312 
79   967  777 
80   620  661 
81   773  268 
82   423  376 
83   328  74  
84   84   245 
85   206  771 
86   924  902 
87   500  379 
88   235  48  
89   419  643 
90   440  967 
91   219  856 
92   954  771 
93   612  693 
94   148  199 
95   688  911 
96   631  504 
97   597  429 
98   511  344 
99   566  907 
100  293  87  
101  988  902 
DEMAND_SECTION
1    0   
2    1   
3    1   
4    1   
5    1   
6    1   
7    1   
8    1   
9    1   
10   1   
11   1   
12   1   
13   1   
14   1   
15   1   
16   1   
17   1   
18   1   
19   1   
20   1   
21   1   
22   1   
23   1   
24   1   
25   1   
26   1   
27   1   
28   1   
29   1   
30   1   
31   1   
32   1   
33   1   
34   1   
35   1   
36   1   
37   1   
38   1   
39   1   
40   1   
41   1   
42   1   
43   1   
44   1   
45   1   
46   1   
47   1   
48   1   
49   1   
50   1   
51   1   
52   1   
53   1   
54   1   
55   1   
56   1   
57   1   
58   1   
59   1   
60   1   
61   1   
62   1   
63   1   
64   1   
65   1   
66   1   
67   1   
68   1   
69   1   
70   1   
71   1   
72   1   
73   1   
74   1   
75   1   
76   1   
77   1   
78   1   
79   1   
80   1   
81   1   
82   1   
83   1   
84   1   
85   1   
86   1   
87   1   
88   1   
89   1   
90   1   
91   1   
92   1   
93   1   
94   1   
95   1   
96   1   
97   1   
98   1   
99   1   
100  1   
101  1   
DEPOT_SECTION
1
-1
EOF
