data/CVRPLIB/Vrp-Set-XML100/solutions/XML100_1112_22.sol
Route #1: 88 79 92 34 54 46
Route #2: 40 27 52 33 82 99
Route #3: 63 64 83 51 93 55
Route #4: 17 45 13 22 11 30
Route #5: 67 49 89 38 24 5
Route #6: 3 69 35 58
Route #7: 81 18 77 56 97 86
Route #8: 57 48 95 47 96 75
Route #9: 6 37 87 15 28 66
Route #10: 80 14 76 1 39 19
Route #11: 16 31 73 32 94 98
Route #12: 91 78 100 12 85 53
Route #13: 84 90 60 72 43 68
Route #14: 61 29 25 65 8 2
Route #15: 74 62 41 42 4 71
Route #16: 9 20 36 44 7 59
Route #17: 26 23 21 70 10 50
Cost 23315
